proyfinal/src/viki/013/experimentInOfficeAgust.take6.output/b8bbb54a-6329-4d27-9c3c-b018593ecff9.als.out
Reading from standard input... Use '--help' for help.
============================[ Problem Statistics ]=============================
|                                                                             |
|  Number of variables:         87638                                         |
|  Number of clauses:          161767                                         |
|  Parse time:                   0.04 s                                       |
|                                                                             |
============================[ Search Statistics ]==============================
| Conflicts |          ORIGINAL         |          LEARNT          | Progress |
|           |    Vars  Clauses Literals |    Limit  Clauses Lit/Cl |          |
===============================================================================
|       100 |   61956   103625   258944 |    37995      100     11 | 29.305 % |
|       250 |   61956   103625   258944 |    41795      250     22 | 29.305 % |
|       475 |   61956   103625   258944 |    45974      475     52 | 29.305 % |
|       812 |   61956   103625   258944 |    50572      812     42 | 29.305 % |
|      1318 |   61955   103581   258854 |    55629     1315     95 | 29.306 % |
|      2077 |   61935   103503   258667 |    61192     1818    122 | 29.329 % |
===============================================================================
restarts              : 15
conflicts             : 3177           (7054 /sec)
decisions             : 12682          (0.00 % random) (28158 /sec)
propagations          : 4585503        (10181138 /sec)
conflict literals     : 370867         (44.23 % deleted)
Memory used           : 23.24 MB
CPU time              : 0.450392 s

UNSATISFIABLE
